5 5
2 32 0 93 1 23 4 16 3 96
3 26 0 33 2 58 4 48 1 83
2 55 4 41 0 62 1 17 3 59
3 14 4 82 0 21 2 63 1 46
1 55 0 62 2 39 4 42 3 48
-1
0 4 5
0 3 5
0 1 2 5
0 1 3 4 5
0 1 4 5
-2
221 400
126 307
82 139 349
22 165 266 283
75 258 290

402 9
6 1 21 17 12
20 2 9 13 19
0 7 10 22 18
5 15 4 24 14
16 8 3 11 23
